NAME : dataset11
TYPE : TSP
COMMENT : 11 puntos para ejecutar
DIMENSION : 11
EDGE_WEIGHT_TYPE : EUC_2D
NODE_COORD_SECTION
1 1.0 138.6204763712
2 1.0 27.8919881680
3 1.0 100.9721122798
4 1.0 24.9439230425
5 1.0 150.9380054195
6 1.0 70.5884207203
7 1.0 5.9468712434
8 1.0 47.1843961467
9 1.0 43.9712767747
10 1.0 35.3869079769
11 1.0 8.4040642042
EOF